************************************************************************
file with basedata            : j60_39.bas
initial value random generator: 7260
************************************************************************
projects                      :  1
jobs (incl. supersource/sink ):  62
horizon                       :  386
RESOURCES
  - renewable                 :  4   R
  - nonrenewable              :  0   N
  - doubly constrained        :  0   D
************************************************************************
PROJECT INFORMATION:
pronr.  #jobs rel.date duedate tardcost  MPM-Time
    1     60      0       75       41       75
************************************************************************
PRECEDENCE RELATIONS:
jobnr.    #modes  #successors   successors
   1        1          3           2   3   4
   2        1          3           5  11  41
   3        1          3           6  13  14
   4        1          3           7  27  35
   5        1          3           9  17  34
   6        1          2          10  24
   7        1          3           8  18  44
   8        1          1          30
   9        1          2          20  42
  10        1          1          12
  11        1          1          47
  12        1          3          19  20  25
  13        1          2          29  54
  14        1          3          15  16  36
  15        1          3          22  23  37
  16        1          1          49
  17        1          3          21  26  28
  18        1          3          26  32  53
  19        1          2          37  53
  20        1          2          35  58
  21        1          3          39  42  43
  22        1          1          56
  23        1          1          27
  24        1          1          31
  25        1          3          42  47  52
  26        1          3          37  40  45
  27        1          2          40  51
  28        1          1          29
  29        1          1          38
  30        1          3          34  46  57
  31        1          1          33
  32        1          3          34  41  50
  33        1          2          41  47
  34        1          3          38  39  56
  35        1          2          38  57
  36        1          2          44  45
  37        1          1          48
  38        1          1          59
  39        1          1          60
  40        1          2          48  52
  41        1          2          46  55
  42        1          1          56
  43        1          2          46  58
  44        1          1          54
  45        1          3          49  50  55
  46        1          1          48
  47        1          1          51
  48        1          1          49
  49        1          1          54
  50        1          2          52  59
  51        1          2          53  55
  52        1          1          57
  53        1          1          58
  54        1          1          61
  55        1          1          59
  56        1          2          60  61
  57        1          1          61
  58        1          1          60
  59        1          1          62
  60        1          1          62
  61        1          1          62
  62        1          0        
************************************************************************
REQUESTS/DURATIONS:
jobnr. mode duration  R 1  R 2  R 3  R 4
------------------------------------------------------------------------
  1      1     0       0    0    0    0
  2      1     6       0    1    8    0
  3      1     9       7    0    0    1
  4      1    10       1    0    9    6
  5      1    10       2    0    2    0
  6      1     7       0    6    0    0
  7      1     9       0    0    0    2
  8      1     3       6    0   10    0
  9      1    10       0    0    3    0
 10      1    10       0    8    8    1
 11      1     6      10    2    0    0
 12      1     5       1    0    0    3
 13      1     7       4    0    0    9
 14      1     6       6    0    0    0
 15      1     6       0    3    0    7
 16      1    10       1    0    0    7
 17      1     6       0    0    7    1
 18      1     4       7    0    0    6
 19      1     4       0    0    3    1
 20      1     4       2    0    0    7
 21      1     7      10    7    0    0
 22      1    10       7    0    0    0
 23      1     4       0    0    1    2
 24      1     4       0    8    0    0
 25      1     9       0    0    2    1
 26      1     9       0    0    5    1
 27      1    10       6    9    0    7
 28      1     7       9    7    0    0
 29      1     9       9    0    2    0
 30      1     2       0    8    9    0
 31      1     3       2    0    2    9
 32      1     8       0    0    4    5
 33      1     5       7    4    0    0
 34      1     9       5    2    8    0
 35      1     4       0    5    0   10
 36      1     9       0    2    3    3
 37      1     7       0    7    0    8
 38      1     7       0    7    4    4
 39      1     2       0    0    8    0
 40      1     2       6    0    0    8
 41      1     5       0    9    3    0
 42      1     5       3    0    0    0
 43      1     1       0   10    0    0
 44      1     9       7    1    7    0
 45      1     4       2    0    0    0
 46      1     9       7    0    2    0
 47      1     4       1    7    9    4
 48      1     8       0    2    0    3
 49      1     1       0    0    0    8
 50      1     7       0    0    6    3
 51      1     3       0    7    2    7
 52      1    10       0    0    0    9
 53      1    10       2    0    7    0
 54      1     7       0    1    0   10
 55      1     8       1    6    1    0
 56      1     3       7    0    1    0
 57      1     6       3    8    0    0
 58      1    10       0    0    1   10
 59      1     6       0    8    9    2
 60      1     8       3   10    0    0
 61      1     3       0    2    0    4
 62      1     0       0    0    0    0
************************************************************************
RESOURCEAVAILABILITIES:
  R 1  R 2  R 3  R 4
   36   28   27   27
************************************************************************
